NAME           C:\Bruker\Hvattum\knapsack\Problems\class1\100-5-24.mps
ROWS
 N  OBJ
 L  CONSTR1
 L  CONSTR2
 L  CONSTR3
 L  CONSTR4
 L  CONSTR5
COLUMNS
    INT0001   'MARKER'  'INTORG'
    X1        OBJ       855
    X1        CONSTR1   919
    X1        CONSTR2   866
    X1        CONSTR3   956
    X1        CONSTR4   27
    X1        CONSTR5   551
    X2        OBJ       1005
    X2        CONSTR1   752
    X2        CONSTR2   178
    X2        CONSTR3   828
    X2        CONSTR4   827
    X2        CONSTR5   578
    X3        OBJ       509
    X3        CONSTR1   389
    X3        CONSTR2   155
    X3        CONSTR3   958
    X3        CONSTR4   346
    X3        CONSTR5   221
    X4        OBJ       1046
    X4        CONSTR1   678
    X4        CONSTR2   678
    X4        CONSTR3   985
    X4        CONSTR4   631
    X4        CONSTR5   195
    X5        OBJ       983
    X5        CONSTR1   803
    X5        CONSTR2   969
    X5        CONSTR3   645
    X5        CONSTR4   720
    X5        CONSTR5   786
    X6        OBJ       754
    X6        CONSTR1   595
    X6        CONSTR2   371
    X6        CONSTR3   338
    X6        CONSTR4   306
    X6        CONSTR5   5
    X7        OBJ       732
    X7        CONSTR1   171
    X7        CONSTR2   686
    X7        CONSTR3   755
    X7        CONSTR4   918
    X7        CONSTR5   970
    X8        OBJ       713
    X8        CONSTR1   211
    X8        CONSTR2   424
    X8        CONSTR3   479
    X8        CONSTR4   662
    X8        CONSTR5   868
    X9        OBJ       674
    X9        CONSTR1   52
    X9        CONSTR2   829
    X9        CONSTR3   453
    X9        CONSTR4   730
    X9        CONSTR5   243
    X10       OBJ       975
    X10       CONSTR1   449
    X10       CONSTR2   867
    X10       CONSTR3   647
    X10       CONSTR4   757
    X10       CONSTR5   80
    X11       OBJ       590
    X11       CONSTR1   38
    X11       CONSTR2   330
    X11       CONSTR3   588
    X11       CONSTR4   253
    X11       CONSTR5   868
    X12       OBJ       909
    X12       CONSTR1   658
    X12       CONSTR2   908
    X12       CONSTR3   467
    X12       CONSTR4   633
    X12       CONSTR5   483
    X13       OBJ       741
    X13       CONSTR1   673
    X13       CONSTR2   781
    X13       CONSTR3   414
    X13       CONSTR4   725
    X13       CONSTR5   634
    X14       OBJ       627
    X14       CONSTR1   470
    X14       CONSTR2   305
    X14       CONSTR3   237
    X14       CONSTR4   355
    X14       CONSTR5   825
    X15       OBJ       568
    X15       CONSTR1   256
    X15       CONSTR2   376
    X15       CONSTR3   229
    X15       CONSTR4   82
    X15       CONSTR5   891
    X16       OBJ       977
    X16       CONSTR1   447
    X16       CONSTR2   664
    X16       CONSTR3   899
    X16       CONSTR4   520
    X16       CONSTR5   431
    X17       OBJ       363
    X17       CONSTR1   834
    X17       CONSTR2   204
    X17       CONSTR3   50
    X17       CONSTR4   430
    X17       CONSTR5   179
    X18       OBJ       861
    X18       CONSTR1   329
    X18       CONSTR2   13
    X18       CONSTR3   65
    X18       CONSTR4   696
    X18       CONSTR5   706
    X19       OBJ       941
    X19       CONSTR1   937
    X19       CONSTR2   809
    X19       CONSTR3   292
    X19       CONSTR4   420
    X19       CONSTR5   158
    X20       OBJ       916
    X20       CONSTR1   998
    X20       CONSTR2   191
    X20       CONSTR3   908
    X20       CONSTR4   856
    X20       CONSTR5   48
    X21       OBJ       738
    X21       CONSTR1   325
    X21       CONSTR2   288
    X21       CONSTR3   588
    X21       CONSTR4   784
    X21       CONSTR5   252
    X22       OBJ       977
    X22       CONSTR1   918
    X22       CONSTR2   130
    X22       CONSTR3   221
    X22       CONSTR4   716
    X22       CONSTR5   996
    X23       OBJ       188
    X23       CONSTR1   33
    X23       CONSTR2   17
    X23       CONSTR3   551
    X23       CONSTR4   23
    X23       CONSTR5   91
    X24       OBJ       677
    X24       CONSTR1   576
    X24       CONSTR2   215
    X24       CONSTR3   890
    X24       CONSTR4   830
    X24       CONSTR5   825
    X25       OBJ       778
    X25       CONSTR1   448
    X25       CONSTR2   106
    X25       CONSTR3   701
    X25       CONSTR4   279
    X25       CONSTR5   116
    X26       OBJ       536
    X26       CONSTR1   118
    X26       CONSTR2   392
    X26       CONSTR3   318
    X26       CONSTR4   245
    X26       CONSTR5   146
    X27       OBJ       920
    X27       CONSTR1   825
    X27       CONSTR2   861
    X27       CONSTR3   865
    X27       CONSTR4   759
    X27       CONSTR5   980
    X28       OBJ       820
    X28       CONSTR1   928
    X28       CONSTR2   478
    X28       CONSTR3   432
    X28       CONSTR4   444
    X28       CONSTR5   855
    X29       OBJ       747
    X29       CONSTR1   306
    X29       CONSTR2   154
    X29       CONSTR3   224
    X29       CONSTR4   269
    X29       CONSTR5   886
    X30       OBJ       586
    X30       CONSTR1   393
    X30       CONSTR2   458
    X30       CONSTR3   867
    X30       CONSTR4   558
    X30       CONSTR5   78
    X31       OBJ       602
    X31       CONSTR1   53
    X31       CONSTR2   693
    X31       CONSTR3   684
    X31       CONSTR4   725
    X31       CONSTR5   314
    X32       OBJ       775
    X32       CONSTR1   100
    X32       CONSTR2   439
    X32       CONSTR3   967
    X32       CONSTR4   957
    X32       CONSTR5   517
    X33       OBJ       632
    X33       CONSTR1   535
    X33       CONSTR2   296
    X33       CONSTR3   501
    X33       CONSTR4   471
    X33       CONSTR5   928
    X34       OBJ       847
    X34       CONSTR1   495
    X34       CONSTR2   548
    X34       CONSTR3   48
    X34       CONSTR4   613
    X34       CONSTR5   236
    X35       OBJ       780
    X35       CONSTR1   794
    X35       CONSTR2   682
    X35       CONSTR3   646
    X35       CONSTR4   400
    X35       CONSTR5   923
    X36       OBJ       1018
    X36       CONSTR1   659
    X36       CONSTR2   793
    X36       CONSTR3   110
    X36       CONSTR4   506
    X36       CONSTR5   773
    X37       OBJ       697
    X37       CONSTR1   951
    X37       CONSTR2   994
    X37       CONSTR3   574
    X37       CONSTR4   399
    X37       CONSTR5   54
    X38       OBJ       821
    X38       CONSTR1   705
    X38       CONSTR2   930
    X38       CONSTR3   557
    X38       CONSTR4   437
    X38       CONSTR5   936
    X39       OBJ       789
    X39       CONSTR1   232
    X39       CONSTR2   46
    X39       CONSTR3   628
    X39       CONSTR4   578
    X39       CONSTR5   219
    X40       OBJ       1040
    X40       CONSTR1   627
    X40       CONSTR2   26
    X40       CONSTR3   789
    X40       CONSTR4   627
    X40       CONSTR5   687
    X41       OBJ       813
    X41       CONSTR1   566
    X41       CONSTR2   113
    X41       CONSTR3   579
    X41       CONSTR4   784
    X41       CONSTR5   941
    X42       OBJ       607
    X42       CONSTR1   163
    X42       CONSTR2   337
    X42       CONSTR3   595
    X42       CONSTR4   432
    X42       CONSTR5   543
    X43       OBJ       408
    X43       CONSTR1   438
    X43       CONSTR2   398
    X43       CONSTR3   471
    X43       CONSTR4   360
    X43       CONSTR5   140
    X44       OBJ       584
    X44       CONSTR1   408
    X44       CONSTR2   262
    X44       CONSTR3   738
    X44       CONSTR4   573
    X44       CONSTR5   865
    X45       OBJ       735
    X45       CONSTR1   329
    X45       CONSTR2   650
    X45       CONSTR3   469
    X45       CONSTR4   188
    X45       CONSTR5   840
    X46       OBJ       705
    X46       CONSTR1   638
    X46       CONSTR2   662
    X46       CONSTR3   920
    X46       CONSTR4   337
    X46       CONSTR5   472
    X47       OBJ       421
    X47       CONSTR1   7
    X47       CONSTR2   777
    X47       CONSTR3   248
    X47       CONSTR4   942
    X47       CONSTR5   45
    X48       OBJ       979
    X48       CONSTR1   892
    X48       CONSTR2   986
    X48       CONSTR3   312
    X48       CONSTR4   279
    X48       CONSTR5   418
    X49       OBJ       584
    X49       CONSTR1   965
    X49       CONSTR2   317
    X49       CONSTR3   204
    X49       CONSTR4   709
    X49       CONSTR5   12
    X50       OBJ       413
    X50       CONSTR1   6
    X50       CONSTR2   136
    X50       CONSTR3   814
    X50       CONSTR4   37
    X50       CONSTR5   473
    X51       OBJ       803
    X51       CONSTR1   648
    X51       CONSTR2   141
    X51       CONSTR3   932
    X51       CONSTR4   598
    X51       CONSTR5   972
    X52       OBJ       310
    X52       CONSTR1   10
    X52       CONSTR2   638
    X52       CONSTR3   203
    X52       CONSTR4   498
    X52       CONSTR5   47
    X53       OBJ       1024
    X53       CONSTR1   624
    X53       CONSTR2   519
    X53       CONSTR3   146
    X53       CONSTR4   908
    X53       CONSTR5   925
    X54       OBJ       1044
    X54       CONSTR1   848
    X54       CONSTR2   679
    X54       CONSTR3   480
    X54       CONSTR4   784
    X54       CONSTR5   801
    X55       OBJ       800
    X55       CONSTR1   958
    X55       CONSTR2   198
    X55       CONSTR3   872
    X55       CONSTR4   71
    X55       CONSTR5   179
    X56       OBJ       825
    X56       CONSTR1   360
    X56       CONSTR2   334
    X56       CONSTR3   68
    X56       CONSTR4   963
    X56       CONSTR5   121
    X57       OBJ       476
    X57       CONSTR1   828
    X57       CONSTR2   224
    X57       CONSTR3   404
    X57       CONSTR4   405
    X57       CONSTR5   445
    X58       OBJ       693
    X58       CONSTR1   514
    X58       CONSTR2   961
    X58       CONSTR3   415
    X58       CONSTR4   558
    X58       CONSTR5   282
    X59       OBJ       496
    X59       CONSTR1   266
    X59       CONSTR2   93
    X59       CONSTR3   380
    X59       CONSTR4   357
    X59       CONSTR5   923
    X60       OBJ       629
    X60       CONSTR1   983
    X60       CONSTR2   279
    X60       CONSTR3   372
    X60       CONSTR4   562
    X60       CONSTR5   565
    X61       OBJ       848
    X61       CONSTR1   335
    X61       CONSTR2   948
    X61       CONSTR3   44
    X61       CONSTR4   856
    X61       CONSTR5   752
    X62       OBJ       819
    X62       CONSTR1   368
    X62       CONSTR2   632
    X62       CONSTR3   215
    X62       CONSTR4   384
    X62       CONSTR5   554
    X63       OBJ       770
    X63       CONSTR1   77
    X63       CONSTR2   938
    X63       CONSTR3   87
    X63       CONSTR4   397
    X63       CONSTR5   859
    X64       OBJ       480
    X64       CONSTR1   124
    X64       CONSTR2   58
    X64       CONSTR3   122
    X64       CONSTR4   439
    X64       CONSTR5   89
    X65       OBJ       602
    X65       CONSTR1   84
    X65       CONSTR2   586
    X65       CONSTR3   800
    X65       CONSTR4   109
    X65       CONSTR5   569
    X66       OBJ       800
    X66       CONSTR1   42
    X66       CONSTR2   325
    X66       CONSTR3   350
    X66       CONSTR4   379
    X66       CONSTR5   902
    X67       OBJ       1108
    X67       CONSTR1   993
    X67       CONSTR2   602
    X67       CONSTR3   822
    X67       CONSTR4   92
    X67       CONSTR5   935
    X68       OBJ       555
    X68       CONSTR1   116
    X68       CONSTR2   946
    X68       CONSTR3   965
    X68       CONSTR4   186
    X68       CONSTR5   551
    X69       OBJ       682
    X69       CONSTR1   95
    X69       CONSTR2   686
    X69       CONSTR3   63
    X69       CONSTR4   79
    X69       CONSTR5   457
    X70       OBJ       670
    X70       CONSTR1   6
    X70       CONSTR2   274
    X70       CONSTR3   950
    X70       CONSTR4   591
    X70       CONSTR5   397
    X71       OBJ       875
    X71       CONSTR1   957
    X71       CONSTR2   534
    X71       CONSTR3   747
    X71       CONSTR4   580
    X71       CONSTR5   17
    X72       OBJ       843
    X72       CONSTR1   946
    X72       CONSTR2   213
    X72       CONSTR3   936
    X72       CONSTR4   487
    X72       CONSTR5   795
    X73       OBJ       489
    X73       CONSTR1   18
    X73       CONSTR2   606
    X73       CONSTR3   265
    X73       CONSTR4   893
    X73       CONSTR5   460
    X74       OBJ       775
    X74       CONSTR1   670
    X74       CONSTR2   859
    X74       CONSTR3   118
    X74       CONSTR4   733
    X74       CONSTR5   925
    X75       OBJ       628
    X75       CONSTR1   846
    X75       CONSTR2   105
    X75       CONSTR3   663
    X75       CONSTR4   855
    X75       CONSTR5   488
    X76       OBJ       955
    X76       CONSTR1   248
    X76       CONSTR2   980
    X76       CONSTR3   481
    X76       CONSTR4   612
    X76       CONSTR5   844
    X77       OBJ       892
    X77       CONSTR1   746
    X77       CONSTR2   767
    X77       CONSTR3   12
    X77       CONSTR4   24
    X77       CONSTR5   917
    X78       OBJ       760
    X78       CONSTR1   194
    X78       CONSTR2   523
    X78       CONSTR3   781
    X78       CONSTR4   750
    X78       CONSTR5   608
    X79       OBJ       1141
    X79       CONSTR1   573
    X79       CONSTR2   623
    X79       CONSTR3   976
    X79       CONSTR4   679
    X79       CONSTR5   859
    X80       OBJ       558
    X80       CONSTR1   30
    X80       CONSTR2   3
    X80       CONSTR3   128
    X80       CONSTR4   738
    X80       CONSTR5   101
    X81       OBJ       732
    X81       CONSTR1   393
    X81       CONSTR2   326
    X81       CONSTR3   878
    X81       CONSTR4   416
    X81       CONSTR5   179
    X82       OBJ       782
    X82       CONSTR1   420
    X82       CONSTR2   445
    X82       CONSTR3   578
    X82       CONSTR4   898
    X82       CONSTR5   468
    X83       OBJ       971
    X83       CONSTR1   573
    X83       CONSTR2   822
    X83       CONSTR3   953
    X83       CONSTR4   27
    X83       CONSTR5   596
    X84       OBJ       393
    X84       CONSTR1   285
    X84       CONSTR2   55
    X84       CONSTR3   719
    X84       CONSTR4   189
    X84       CONSTR5   193
    X85       OBJ       987
    X85       CONSTR1   434
    X85       CONSTR2   773
    X85       CONSTR3   901
    X85       CONSTR4   773
    X85       CONSTR5   858
    X86       OBJ       860
    X86       CONSTR1   430
    X86       CONSTR2   665
    X86       CONSTR3   515
    X86       CONSTR4   967
    X86       CONSTR5   405
    X87       OBJ       1059
    X87       CONSTR1   657
    X87       CONSTR2   895
    X87       CONSTR3   588
    X87       CONSTR4   841
    X87       CONSTR5   677
    X88       OBJ       651
    X88       CONSTR1   947
    X88       CONSTR2   2
    X88       CONSTR3   910
    X88       CONSTR4   28
    X88       CONSTR5   520
    X89       OBJ       731
    X89       CONSTR1   791
    X89       CONSTR2   283
    X89       CONSTR3   616
    X89       CONSTR4   727
    X89       CONSTR5   985
    X90       OBJ       727
    X90       CONSTR1   147
    X90       CONSTR2   250
    X90       CONSTR3   588
    X90       CONSTR4   214
    X90       CONSTR5   107
    X91       OBJ       1130
    X91       CONSTR1   296
    X91       CONSTR2   881
    X91       CONSTR3   928
    X91       CONSTR4   355
    X91       CONSTR5   947
    X92       OBJ       545
    X92       CONSTR1   332
    X92       CONSTR2   393
    X92       CONSTR3   515
    X92       CONSTR4   22
    X92       CONSTR5   812
    X93       OBJ       723
    X93       CONSTR1   722
    X93       CONSTR2   842
    X93       CONSTR3   972
    X93       CONSTR4   492
    X93       CONSTR5   268
    X94       OBJ       990
    X94       CONSTR1   927
    X94       CONSTR2   609
    X94       CONSTR3   371
    X94       CONSTR4   668
    X94       CONSTR5   636
    X95       OBJ       486
    X95       CONSTR1   135
    X95       CONSTR2   161
    X95       CONSTR3   899
    X95       CONSTR4   908
    X95       CONSTR5   76
    X96       OBJ       575
    X96       CONSTR1   69
    X96       CONSTR2   191
    X96       CONSTR3   660
    X96       CONSTR4   339
    X96       CONSTR5   537
    X97       OBJ       703
    X97       CONSTR1   453
    X97       CONSTR2   639
    X97       CONSTR3   885
    X97       CONSTR4   821
    X97       CONSTR5   154
    X98       OBJ       979
    X98       CONSTR1   728
    X98       CONSTR2   364
    X98       CONSTR3   949
    X98       CONSTR4   846
    X98       CONSTR5   407
    X99       OBJ       613
    X99       CONSTR1   818
    X99       CONSTR2   418
    X99       CONSTR3   302
    X99       CONSTR4   352
    X99       CONSTR5   329
    X100      OBJ       945
    X100      CONSTR1   352
    X100      CONSTR2   481
    X100      CONSTR3   997
    X100      CONSTR4   445
    X100      CONSTR5   696
    INT0001   'MARKER'  'INTEND'
RHS
    RHS10001  CONSTR1   36381
    RHS10001  CONSTR2   36418
    RHS10001  CONSTR3   42169
    RHS10001  CONSTR4   39038
    RHS10001  CONSTR5   39353
BOUNDS
 BV BND       X1        .00
 BV BND       X2        .00
 BV BND       X3        .00
 BV BND       X4        .00
 BV BND       X5        .00
 BV BND       X6        .00
 BV BND       X7        .00
 BV BND       X8        .00
 BV BND       X9        .00
 BV BND       X10       .00
 BV BND       X11       .00
 BV BND       X12       .00
 BV BND       X13       .00
 BV BND       X14       .00
 BV BND       X15       .00
 BV BND       X16       .00
 BV BND       X17       .00
 BV BND       X18       .00
 BV BND       X19       .00
 BV BND       X20       .00
 BV BND       X21       .00
 BV BND       X22       .00
 BV BND       X23       .00
 BV BND       X24       .00
 BV BND       X25       .00
 BV BND       X26       .00
 BV BND       X27       .00
 BV BND       X28       .00
 BV BND       X29       .00
 BV BND       X30       .00
 BV BND       X31       .00
 BV BND       X32       .00
 BV BND       X33       .00
 BV BND       X34       .00
 BV BND       X35       .00
 BV BND       X36       .00
 BV BND       X37       .00
 BV BND       X38       .00
 BV BND       X39       .00
 BV BND       X40       .00
 BV BND       X41       .00
 BV BND       X42       .00
 BV BND       X43       .00
 BV BND       X44       .00
 BV BND       X45       .00
 BV BND       X46       .00
 BV BND       X47       .00
 BV BND       X48       .00
 BV BND       X49       .00
 BV BND       X50       .00
 BV BND       X51       .00
 BV BND       X52       .00
 BV BND       X53       .00
 BV BND       X54       .00
 BV BND       X55       .00
 BV BND       X56       .00
 BV BND       X57       .00
 BV BND       X58       .00
 BV BND       X59       .00
 BV BND       X60       .00
 BV BND       X61       .00
 BV BND       X62       .00
 BV BND       X63       .00
 BV BND       X64       .00
 BV BND       X65       .00
 BV BND       X66       .00
 BV BND       X67       .00
 BV BND       X68       .00
 BV BND       X69       .00
 BV BND       X70       .00
 BV BND       X71       .00
 BV BND       X72       .00
 BV BND       X73       .00
 BV BND       X74       .00
 BV BND       X75       .00
 BV BND       X76       .00
 BV BND       X77       .00
 BV BND       X78       .00
 BV BND       X79       .00
 BV BND       X80       .00
 BV BND       X81       .00
 BV BND       X82       .00
 BV BND       X83       .00
 BV BND       X84       .00
 BV BND       X85       .00
 BV BND       X86       .00
 BV BND       X87       .00
 BV BND       X88       .00
 BV BND       X89       .00
 BV BND       X90       .00
 BV BND       X91       .00
 BV BND       X92       .00
 BV BND       X93       .00
 BV BND       X94       .00
 BV BND       X95       .00
 BV BND       X96       .00
 BV BND       X97       .00
 BV BND       X98       .00
 BV BND       X99       .00
 BV BND       X100      .00
ENDATA
